5 5
5 4 2 10 4 12 3 20 1 11 5 2 20 3 9 5 6 4 12 1 4 1 2 19 3 4 16 5 3 2 19 4 5 2 1 18 3 9 4 3
5 4 5 8 4 17 1 11 2 6 5 4 9 1 20 2 2 5 14 3 12 5 5 6 2 7 3 5 1 9 4 4 4 4 13 3 7 5 7 1 7 4 5 8 3 19 1 3 4 15
4 1 4 5 2 2 12 4 2 1 1 12 2 4 12 3 15
8 2 4 8 1 8 4 4 14 1 7 2 13 3 12 1 4 18 4 5 9 3 8 4 19 2 2 4 4 18 3 19 2 18 5 14 4 4 5 5 4 3 11 1 15 1 5 19 1 1 10
6 2 2 14 3 17 5 1 11 4 3 5 16 3 2 2 13 4 4 15 3 7 5 17 2 2 5 5 18 3 12 4 7 2 16 1 4 5 1 13 3 14 2 19 4 18 5 18 2 4 4 5 10